h -4 -3 0
1 17 20 0
260191625 -41 0
158448569 6 0
488249031 8 0
1 -20 12 0
469864006 2 -4 0
136975096 23 -5 0
34728433 23 -6 0
h -3 -14 0
h 19 18 0
402722626 20 3 -22 -18 19 0
70996466 -45 0
h -17 45 3 0
h 43 -23 0
h -8 23 41 0
588480230 19 -20 0
1 19 20 2 0
206375877 22 20 0
h -22 43 23 0
597711851 18 0
634612304 -43 0
247181022 21 -23 0
h 14 -23 0
h -2 5 0
h 3 4 0
